 
Minimize 
 Obj: -1650000 D3T...BW +1200000 _EN4...BW +1600000 _ETO...BW +8757 QPB73EBW +8757 QPB73RBW 
Subject to 
 BAL...BW: -1 BAL.3EBW -1 BAL.3PBW -1 BAL.3RBW +1 _EAL...BW = +0 
 BHC...BW: -1 BHC.3EBW -1 BHC.3PBW -1 BHC.3RBW +1 _EHC...BW = +0 
 BLC...BW: -1 BLC.3EBW -1 BLC.3PBW -1 BLC.3RBW +1 _ELC...BW = +0 
 BLV...BW: -1 BLV.3EBW -1 BLV.3PBW -1 BLV.3RBW +1 _ELV...BW = +0 
 BN4...BW: -1 BN4.3EBW -1 BN4.3PBW -1 BN4.3RBW +1 _EN4...BW = +0 
 BP8...BW: -1 BP8.3EBW -1 BP8.3PBW -1 BP8.3RBW +1 _EP8...BW = +0 
 BTO...BW: -1 BTO.3EBW -1 BTO.3PBW -1 BTO.3RBW +1 _ETO...BW = +0 
 B3E...BW: -28 M3..3TBW +100 QVO73EBW = +0 
 B3P...BW: -17 M3..3TBW +100 QVO73PBW = +0 
 B3R...BW: -54 M3..3TBW +100 QVO73RBW = +0 
 B3T...BW: -1 D3T...BW +1 M3..3TBW = +0 
 B3E.VOBW: +1 BAL.3EBW +1 BHC.3EBW +1 BLC.3EBW +1 BLV.3EBW +1 BN4.3EBW +1 BP8.3EBW +1 BTO.3EBW -1 QVO73EBW 
  = +0 
 B3P.VOBW: +1 BAL.3PBW +1 BHC.3PBW +1 BLC.3PBW +1 BLV.3PBW +1 BN4.3PBW +1 BP8.3PBW +1 BTO.3PBW -1 QVO73PBW 
  = +0 
 B3R.VOBW: +1 BAL.3RBW +1 BHC.3RBW +1 BLC.3RBW +1 BLV.3RBW +1 BN4.3RBW +1 BP8.3RBW +1 BTO.3RBW -1 QVO73RBW 
  = +0 
 HMH.3EBW: +9918559 BAL.3EBW +8204308 BHC.3EBW +8399370 BLC.3EBW +8561385 BLV.3EBW +9806433 BN4.3EBW 
  +9162642 BP8.3EBW +9049629 BTO.3EBW +123842 QPB73EBW -210530 QVO73EBW -100000 WMO73EBW >= +0 
 HML.3EBW: +9463568 BAL.3EBW +7940534 BHC.3EBW +8037873 BLC.3EBW +8036789 BLV.3EBW +9271594 BN4.3EBW 
  +9003844 BP8.3EBW +8910432 BTO.3EBW +342918 QPB73EBW -137167 QVO73EBW -100000 WMO73EBW >= +0 
 HMM.3EBW: +9808976 BAL.3EBW +8147009 BHC.3EBW +8322026 BLC.3EBW +8451910 BLV.3EBW +9686628 BN4.3EBW 
  +9126611 BP8.3EBW +9014887 BTO.3EBW +155751 QPB73EBW -202477 QVO73EBW -100000 WMO73EBW >= +0 
 HRH.3EBW: +10305810 BAL.3EBW +9502163 BHC.3EBW +9864634 BLC.3EBW +8846612 BLV.3EBW +10166321 BN4.3EBW 
  +10251818 BP8.3EBW +10646719 BTO.3EBW +127141 QPB73EBW -216139 QVO73EBW -100000 WRO73EBW >= +0 
 HRL.3EBW: +9870277 BAL.3EBW +9289535 BHC.3EBW +9538345 BLC.3EBW +8287970 BLV.3EBW +9732996 BN4.3EBW 
  +10117309 BP8.3EBW +10547666 BTO.3EBW +252143 QPB73EBW -100857 QVO73EBW -100000 WRO73EBW >= +0 
 HRM.3EBW: +10202191 BAL.3EBW +9457094 BHC.3EBW +9797965 BLC.3EBW +8733298 BLV.3EBW +10065000 BN4.3EBW 
  +10221363 BP8.3EBW +10621918 BTO.3EBW +154954 QPB73EBW -201440 QVO73EBW -100000 WRO73EBW >= +0 
 HMH.3RBW: +9918559 BAL.3RBW +8204308 BHC.3RBW +8399370 BLC.3RBW +8561385 BLV.3RBW +9806433 BN4.3RBW 
  +9162642 BP8.3RBW +9049629 BTO.3RBW +175028 QPB73RBW -297548 QVO73RBW -100000 WMO73RBW >= +0 
 HML.3RBW: +9517073 BAL.3RBW +7972866 BHC.3RBW +8082888 BLC.3RBW +8103825 BLV.3RBW +9341749 BN4.3RBW 
  +9022411 BP8.3RBW +8925587 BTO.3RBW +441873 QPB73RBW -220936 QVO73RBW -100000 WMO73RBW >= +0 
 HMM.3RBW: +9711016 BAL.3RBW +8094047 BHC.3RBW +8249926 BLC.3RBW +8348457 BLV.3RBW +9586635 BN4.3RBW 
  +9094112 BP8.3RBW +8984584 BTO.3RBW +274531 QPB73RBW -274531 QVO73RBW -100000 WMO73RBW >= +0 
 HRH.3RBW: +10305810 BAL.3RBW +9502163 BHC.3RBW +9864634 BLC.3RBW +8846612 BLV.3RBW +10166321 BN4.3RBW 
  +10251818 BP8.3RBW +10646719 BTO.3RBW +164391 QPB73RBW -279464 QVO73RBW -100000 WRO73RBW >= +0 
 HRL.3RBW: +9919039 BAL.3RBW +9316124 BHC.3RBW +9580861 BLC.3RBW +8361375 BLV.3RBW +9786876 BN4.3RBW 
  +10132905 BP8.3RBW +10558392 BTO.3RBW +431949 QPB73RBW -215974 QVO73RBW -100000 WRO73RBW >= +0 
 HRM.3RBW: +10108850 BAL.3RBW +9414769 BHC.3RBW +9734183 BLC.3RBW +8624515 BLV.3RBW +9977765 BN4.3RBW 
  +10193754 BP8.3RBW +10600190 BTO.3RBW +262696 QPB73RBW -262696 QVO73RBW -100000 WRO73RBW >= +0 
 NOI.3EBW: -10752 QVO73EBW +73 WMO73EBW +41 WRO73EBW >= +0 
 NOI.3PBW: -9741 QVO73PBW +84 WMO73PBW +27 WRO73PBW >= +0 
 NOI.3RBW: -9850 QVO73RBW +81 WMO73RBW +31 WRO73RBW >= +0 
 WMO.3PBW: +9196313 BAL.3PBW +7809095 BHC.3PBW +8074635 BLC.3PBW +7737441 BLV.3PBW +8835436 BN4.3PBW 
  +8858029 BP8.3PBW +8818188 BTO.3PBW -100000 WMO73PBW = +0 
 WRO.3PBW: +9613556 BAL.3PBW +9099637 BHC.3PBW +9395665 BLC.3PBW +7978001 BLV.3PBW +9411062 BN4.3PBW 
  +9983178 BP8.3PBW +10507558 BTO.3PBW -100000 WRO73PBW = +0 
 XPB.3ABW: +10 QPB73EBW -15 QVO73EBW -15 QVO73PBW +10 QPB73RBW -15 QVO73RBW <= +0 
 XCV.3EBW: +6 BAL.3EBW -2 BHC.3EBW +7 BLC.3EBW +14 BLV.3EBW +80 BN4.3EBW +4 BP8.3EBW -1 BTO.3EBW -16 QVO73EBW 
  <= +0 
 XPB.3EBW: +10 QPB73EBW -17 QVO73EBW <= +0 
 XRV.3EBW: +40 BAL.3EBW +5 BHC.3EBW +45 BLC.3EBW +72 BLV.3EBW +700 BN4.3EBW +36 BP8.3EBW +12 BTO.3EBW 
  -12 QVO73EBW <= +0 
 X12.3EBW: +503 BAL.3EBW -156 BHC.3EBW +579 BLC.3EBW +1023 BLV.3EBW +1130 BN4.3EBW +289 BP8.3EBW +50 BTO.3EBW 
  -61 QVO73EBW <= +0 
 XCV.3PBW: +6 BAL.3PBW -2 BHC.3PBW +7 BLC.3PBW +14 BLV.3PBW +80 BN4.3PBW +4 BP8.3PBW -1 BTO.3PBW -16 QVO73PBW 
  <= +0 
 XRV.3PBW: +40 BAL.3PBW +5 BHC.3PBW +45 BLC.3PBW +72 BLV.3PBW +700 BN4.3PBW +36 BP8.3PBW +12 BTO.3PBW 
  -12 QVO73PBW <= +0 
 X12.3PBW: +503 BAL.3PBW -156 BHC.3PBW +579 BLC.3PBW +1023 BLV.3PBW +1130 BN4.3PBW +289 BP8.3PBW +50 BTO.3PBW 
  -61 QVO73PBW <= +0 
 XCV.3RBW: +6 BAL.3RBW -2 BHC.3RBW +7 BLC.3RBW +14 BLV.3RBW +80 BN4.3RBW +4 BP8.3RBW -1 BTO.3RBW -16 QVO73RBW 
  <= +0 
 XPB.3RBW: +10 QPB73RBW -17 QVO73RBW <= +0 
 XRV.3RBW: +40 BAL.3RBW +5 BHC.3RBW +45 BLC.3RBW +72 BLV.3RBW +700 BN4.3RBW +36 BP8.3RBW +12 BTO.3RBW 
  -12 QVO73RBW <= +0 
 X12.3RBW: +503 BAL.3RBW -156 BHC.3RBW +579 BLC.3RBW +1023 BLV.3RBW +1130 BN4.3RBW +289 BP8.3RBW +50 BTO.3RBW 
  -61 QVO73RBW <= +0 
Bounds 
 0 <= D3T...BW <= 200 
 0 <= _EN4...BW <= 100 
 0 <= _ETO...BW <= 5 
 0 <= _EAL...BW <= 10 
 0 <= BHC.3EBW <= 10 
 0 <= _EHC...BW <= 20 
 0 <= _ELC...BW <= 25 
 0 <= _ELV...BW <= 12 
 0 <= _EP8...BW <= 35 
End 
